Cost: 907
0-17-12-26-0
0-7-10-31-0
0-20-37-36-47-0
0-33-16-51-0
0-23-41-42-22-1-0
0-29-15-13-27-0
0-39-9-25-0
0-46-52-34-0
0-35-14-19-8-0
0-28-21-30-0
0-6-2-4-0
0-3-24-18-50-0
0-48-5-45-0
0-38-11-53-0
0-44-32-40-0
Cost: 907
0-3-24-18-50-0
0-4-2-6-0
0-7-10-31-0
0-33-16-51-0
0-45-5-48-0
0-35-14-19-8-0
0-17-12-26-0
0-29-15-13-27-0
0-1-22-42-41-23-0
0-53-11-38-0
0-28-21-30-0
0-44-32-40-0
0-25-9-39-0
0-46-52-34-0
0-47-36-20-37-0
Cost: 907
0-17-12-26-0
0-7-10-31-0
0-20-37-36-47-0
0-33-16-51-0
0-23-41-42-22-1-0
0-29-15-13-27-0
0-39-9-25-0
0-46-52-34-0
0-35-14-19-8-0
0-28-21-30-0
0-6-2-4-0
0-3-24-18-50-0
0-48-5-45-0
0-38-11-53-0
0-44-32-40-0
Cost: 907
0-27-13-15-29-0
0-33-16-51-0
0-8-19-14-35-0
0-30-21-28-0
0-25-9-39-0
0-17-12-26-0
0-48-5-45-0
0-34-52-46-0
0-37-20-36-47-0
0-3-24-18-50-0
0-6-2-4-0
0-44-32-40-0
0-38-11-53-0
0-1-22-42-41-23-0
0-31-10-7-0
Cost: 907
0-8-19-14-35-0
0-44-32-40-0
0-20-37-36-47-0
0-28-21-30-0
0-6-2-4-0
0-3-18-24-49-23-0
0-1-43-42-22-0
0-25-9-39-0
0-29-15-13-27-0
0-48-5-45-0
0-7-10-31-0
0-38-11-53-0
0-34-52-46-0
0-51-16-33-0
0-26-12-17-0
Cost: 907
0-25-9-39-0
0-30-21-28-0
0-35-14-19-8-0
0-51-16-33-0
0-31-10-7-0
0-20-37-36-47-0
0-48-5-45-0
0-38-11-53-0
0-34-52-46-0
0-1-43-42-22-0
0-6-2-4-0
0-27-13-15-29-0
0-44-32-40-0
0-17-12-26-0
0-3-18-24-49-23-0
Cost: 907
0-33-16-51-0
0-22-42-43-1-0
0-48-5-45-0
0-28-21-30-0
0-44-32-40-0
0-25-9-39-0
0-47-36-20-37-0
0-27-13-15-29-0
0-26-12-17-0
0-38-11-53-0
0-34-52-46-0
0-6-2-4-0
0-3-18-24-49-23-0
0-31-10-7-0
0-8-19-14-35-0
Cost: 907
0-33-16-51-0
0-22-42-43-1-0
0-48-5-45-0
0-28-21-30-0
0-44-32-40-0
0-25-9-39-0
0-47-36-20-37-0
0-27-13-15-29-0
0-26-12-17-0
0-38-11-53-0
0-34-52-46-0
0-6-2-4-0
0-3-18-24-49-23-0
0-31-10-7-0
0-8-19-14-35-0
Cost: 907
0-33-16-51-0
0-22-42-43-1-0
0-48-5-45-0
0-28-21-30-0
0-44-32-40-0
0-25-9-39-0
0-47-36-20-37-0
0-27-13-15-29-0
0-26-12-17-0
0-38-11-53-0
0-34-52-46-0
0-6-2-4-0
0-3-18-24-49-23-0
0-31-10-7-0
0-8-19-14-35-0
Cost: 907
0-31-10-7-0
0-39-9-25-0
0-27-13-15-29-0
0-34-52-46-0
0-26-12-17-0
0-35-14-19-8-0
0-1-22-42-41-23-0
0-6-2-4-0
0-33-16-51-0
0-48-5-45-0
0-37-20-36-47-0
0-30-21-28-0
0-38-11-53-0
0-3-24-18-50-0
0-44-32-40-0
Cost: 907
0-31-10-7-0
0-39-9-25-0
0-27-13-15-29-0
0-34-52-46-0
0-26-12-17-0
0-35-14-19-8-0
0-1-22-42-41-23-0
0-6-2-4-0
0-33-16-51-0
0-48-5-45-0
0-37-20-36-47-0
0-30-21-28-0
0-38-11-53-0
0-3-24-18-50-0
0-44-32-40-0
Cost: 907
0-28-21-30-0
0-40-32-44-0
0-53-11-38-0
0-4-2-6-0
0-29-15-13-27-0
0-8-19-14-35-0
0-45-5-48-0
0-46-52-34-0
0-31-10-7-0
0-25-9-39-0
0-37-20-36-47-0
0-3-24-18-50-0
0-51-16-33-0
0-26-12-17-0
0-1-22-42-41-23-0
Cost: 907
0-31-10-7-0
0-39-9-25-0
0-27-13-15-29-0
0-34-52-46-0
0-26-12-17-0
0-35-14-19-8-0
0-1-22-42-41-23-0
0-6-2-4-0
0-33-16-51-0
0-48-5-45-0
0-37-20-36-47-0
0-30-21-28-0
0-38-11-53-0
0-3-24-18-50-0
0-44-32-40-0
Cost: 907
0-26-12-17-0
0-37-20-36-47-0
0-28-21-30-0
0-6-2-4-0
0-53-11-38-0
0-45-5-48-0
0-46-52-34-0
0-33-16-51-0
0-31-10-7-0
0-25-9-39-0
0-23-49-24-18-3-0
0-22-42-43-1-0
0-27-13-15-29-0
0-44-32-40-0
0-35-14-19-8-0
Cost: 907
0-31-10-7-0
0-39-9-25-0
0-27-13-15-29-0
0-34-52-46-0
0-26-12-17-0
0-35-14-19-8-0
0-1-22-42-41-23-0
0-6-2-4-0
0-33-16-51-0
0-48-5-45-0
0-37-20-36-47-0
0-30-21-28-0
0-38-11-53-0
0-3-24-18-50-0
0-44-32-40-0
Cost: 907
0-31-10-7-0
0-39-9-25-0
0-27-13-15-29-0
0-34-52-46-0
0-26-12-17-0
0-35-14-19-8-0
0-1-22-42-41-23-0
0-6-2-4-0
0-33-16-51-0
0-48-5-45-0
0-37-20-36-47-0
0-30-21-28-0
0-38-11-53-0
0-3-24-18-50-0
0-44-32-40-0
Cost: 907
0-23-41-42-22-1-0
0-28-21-30-0
0-3-24-18-50-0
0-6-2-4-0
0-8-19-14-35-0
0-34-52-46-0
0-47-36-20-37-0
0-33-16-51-0
0-27-13-15-29-0
0-45-5-48-0
0-40-32-44-0
0-38-11-53-0
0-25-9-39-0
0-7-10-31-0
0-17-12-26-0
Cost: 907
0-25-9-39-0
0-45-5-48-0
0-46-52-34-0
0-33-16-51-0
0-50-18-24-3-0
0-8-19-14-35-0
0-44-32-40-0
0-27-13-15-29-0
0-17-12-26-0
0-47-36-20-37-0
0-1-22-42-41-23-0
0-53-11-38-0
0-6-2-4-0
0-28-21-30-0
0-31-10-7-0
Cost: 907
0-3-24-18-50-0
0-28-21-30-0
0-51-16-33-0
0-46-52-34-0
0-6-2-4-0
0-7-10-31-0
0-25-9-39-0
0-48-5-45-0
0-8-19-14-35-0
0-44-32-40-0
0-47-36-20-37-0
0-29-15-13-27-0
0-38-11-53-0
0-23-41-42-22-1-0
0-26-12-17-0
Cost: 907
0-51-16-33-0
0-1-22-42-43-23-0
0-35-14-19-8-0
0-34-52-46-0
0-25-9-39-0
0-27-13-15-29-0
0-44-32-40-0
0-20-37-36-47-0
0-30-21-28-0
0-53-11-38-0
0-6-2-4-0
0-26-12-17-0
0-31-10-7-0
0-50-18-24-3-0
0-45-5-48-0
Cost: 907
0-51-16-33-0
0-47-36-20-37-0
0-50-18-24-3-0
0-31-10-7-0
0-27-13-15-29-0
0-53-11-38-0
0-48-5-45-0
0-8-19-14-35-0
0-44-32-40-0
0-34-52-46-0
0-23-41-42-22-1-0
0-39-9-25-0
0-17-12-26-0
0-4-2-6-0
0-28-21-30-0
Cost: 907
0-51-16-33-0
0-47-36-20-37-0
0-50-18-24-3-0
0-31-10-7-0
0-27-13-15-29-0
0-53-11-38-0
0-48-5-45-0
0-8-19-14-35-0
0-44-32-40-0
0-34-52-46-0
0-23-41-42-22-1-0
0-39-9-25-0
0-17-12-26-0
0-4-2-6-0
0-28-21-30-0
Cost: 907
0-7-10-31-0
0-45-5-48-0
0-3-24-18-50-0
0-28-21-30-0
0-26-12-17-0
0-25-9-39-0
0-6-2-4-0
0-35-14-19-8-0
0-44-32-40-0
0-46-52-34-0
0-27-13-15-29-0
0-33-16-51-0
0-1-22-42-41-23-0
0-38-11-53-0
0-37-20-36-47-0
Cost: 907
0-51-16-33-0
0-47-36-20-37-0
0-50-18-24-3-0
0-31-10-7-0
0-27-13-15-29-0
0-53-11-38-0
0-48-5-45-0
0-8-19-14-35-0
0-44-32-40-0
0-34-52-46-0
0-23-41-42-22-1-0
0-39-9-25-0
0-17-12-26-0
0-4-2-6-0
0-28-21-30-0
Cost: 907
0-20-37-36-47-0
0-17-12-26-0
0-6-2-4-0
0-25-9-39-0
0-40-32-44-0
0-53-11-38-0
0-28-21-30-0
0-31-10-7-0
0-35-14-19-8-0
0-1-22-42-41-23-0
0-27-13-15-29-0
0-50-18-24-3-0
0-48-5-45-0
0-46-52-34-0
0-33-16-51-0
Cost: 907
0-35-14-19-8-0
0-6-2-4-0
0-17-12-26-0
0-51-16-33-0
0-3-18-24-49-23-0
0-30-21-28-0
0-46-52-34-0
0-48-5-45-0
0-27-13-15-29-0
0-44-32-40-0
0-22-42-43-1-0
0-25-9-39-0
0-20-37-36-47-0
0-31-10-7-0
0-38-11-53-0
Cost: 907
0-3-24-18-50-0
0-46-52-34-0
0-35-14-19-8-0
0-26-12-17-0
0-47-36-20-37-0
0-25-9-39-0
0-40-32-44-0
0-38-11-53-0
0-29-15-13-27-0
0-48-5-45-0
0-6-2-4-0
0-51-16-33-0
0-23-41-42-22-1-0
0-30-21-28-0
0-7-10-31-0
Cost: 915
0-4-46-34-0
0-20-37-36-47-0
0-12-26-0
0-3-24-49-16-0
0-38-11-53-0
0-8-19-14-35-0
0-44-50-18-25-0
0-29-15-13-27-0
0-45-5-48-0
0-33-2-6-0
0-17-9-39-0
0-30-21-28-0
0-22-42-41-23-1-0
0-51-32-40-0
0-31-10-7-0
Cost: 929
0-28-21-30-0
0-45-5-48-0
0-12-46-34-0
0-53-11-38-0
0-8-13-27-0
0-52-29-4-0
0-40-32-51-0
0-7-14-19-35-0
0-26-10-31-0
0-39-9-17-0
0-23-41-42-22-1-0
0-3-24-49-16-0
0-2-33-6-0
0-50-25-18-44-0
0-36-37-20-15-0
Cost: 907
0-48-5-45-0
0-46-52-34-0
0-25-9-39-0
0-28-21-30-0
0-29-15-13-27-0
0-33-16-51-0
0-37-20-36-47-0
0-38-11-53-0
0-4-2-6-0
0-22-42-43-1-0
0-35-14-19-8-0
0-23-49-24-18-3-0
0-44-32-40-0
0-31-10-7-0
0-26-12-17-0
Cost: 907
0-17-12-26-0
0-7-10-31-0
0-23-41-42-22-1-0
0-33-16-51-0
0-27-13-15-29-0
0-8-19-14-35-0
0-25-9-39-0
0-44-32-40-0
0-37-20-36-47-0
0-50-18-24-3-0
0-53-11-38-0
0-4-2-6-0
0-28-21-30-0
0-48-5-45-0
0-46-52-34-0
